c parsing input formula with 8 variables and 256 clauses
c finished parsing
c detected empty clause; start verification via backward checking
c 256 of 256 clauses in core                            
c 128 of 136 lemmas in core using 503 resolution steps
c 0 RAT lemmas in core; 120 redundant literals in core lemmas
s VERIFIED
c verification time: 0.080 seconds
